NAME : portgen-27-11
COMMENT : portgen N=27, seed=11
TYPE : TSP
DIMENSION : 27
EDGE_WEIGHT_TYPE : EUC_2D
NODE_COORD_SECTION
1 894833 498824
2 269321 547700
3 192952 602876
4 333870 554198
5 242151 648875
6 798770 991707
7 532564 85112
8 934698 251921
9 772656 580472
10 426377 511921
11 965268 291438
12 830998 835175
13 669057 603933
14 499932 122088
15 726919 754129
16 198368 315976
17 757754 995603
18 606989 824322
19 873342 378167
20 999954 405905
21 791996 584068
22 744099 422424
23 358646 413926
24 60668 755952
25 985221 671609
26 589913 639089
27 61766 275626
